(set-logic ALL)
(declare-fun var0 () String)
(assert (str.in_re var0 (re.++ (re.* (re.union (str.to_re "0") (str.to_re "11"))) (re.++ (re.* (re.+ (str.to_re "222"))) (re.++ (re.+ (re.+ (str.to_re "3"))) (re.++ (re.union (re.* (str.to_re "4")) (re.+ (str.to_re "555"))) (re.++ (re.+ (re.* (str.to_re "6"))) (re.++ (re.* (re.union (str.to_re "777") (str.to_re "88"))) (re.++ (re.+ (re.+ (str.to_re "9"))) (re.++ (re.+ (re.union (str.to_re "aa") (str.to_re "b"))) (re.++ (re.+ (re.+ (str.to_re "ccc"))) (re.+ (re.* (str.to_re "ddd"))))))))))))))
(assert (<= 476 (str.len var0)))
(check-sat)